c nIsolatedPIs 48
c maxPI 16
p cnf 45 88
c gate 17 4 12 0
4 -17 0
12 -17 0
-4 -12 17 0
c gate 18 3 11 0
3 -18 0
11 -18 0
-3 -11 18 0
c gate 19 -17 -18 0
-17 -19 0
-18 -19 0
17 18 19 0
c gate 20 -3 -11 0
-3 -20 0
-11 -20 0
3 11 20 0
c gate 21 -2 -10 0
-2 -21 0
-10 -21 0
2 10 21 0
c gate 22 -20 -21 0
-20 -22 0
-21 -22 0
20 21 22 0
c gate 23 2 10 0
2 -23 0
10 -23 0
-2 -10 23 0
c gate 24 1 9 0
1 -24 0
9 -24 0
-1 -9 24 0
c gate 25 -23 -24 0
-23 -25 0
-24 -25 0
23 24 25 0
c gate 26 22 -25 0
22 -26 0
-25 -26 0
-22 25 26 0
c gate 27 19 -26 0
19 -27 0
-26 -27 0
-19 26 27 0
c gate 28 6 14 0
6 -28 0
14 -28 0
-6 -14 28 0
c gate 29 -5 -13 0
-5 -29 0
-13 -29 0
5 13 29 0
c gate 30 -6 -14 0
-6 -30 0
-14 -30 0
6 14 30 0
c gate 31 -29 -30 0
-29 -31 0
-30 -31 0
29 30 31 0
c gate 32 -28 31 0
-28 -32 0
31 -32 0
28 -31 32 0
c gate 33 7 -15 0
7 -33 0
-15 -33 0
-7 15 33 0
c gate 34 -7 15 0
-7 -34 0
15 -34 0
7 -15 34 0
c gate 35 -33 -34 0
-33 -35 0
-34 -35 0
33 34 35 0
c gate 36 8 -16 0
8 -36 0
-16 -36 0
-8 16 36 0
c gate 37 -8 16 0
-8 -37 0
16 -37 0
8 -16 37 0
c gate 38 -36 -37 0
-36 -38 0
-37 -38 0
36 37 38 0
c gate 39 -4 -12 0
-4 -39 0
-12 -39 0
4 12 39 0
c gate 40 5 13 0
5 -40 0
13 -40 0
-5 -13 40 0
c gate 41 -39 -40 0
-39 -41 0
-40 -41 0
39 40 41 0
c gate 42 -38 41 0
-38 -42 0
41 -42 0
38 -41 42 0
c gate 43 -35 42 0
-35 -43 0
42 -43 0
35 -42 43 0
c gate 44 32 43 0
32 -44 0
43 -44 0
-32 -43 44 0
c gate 45 -27 44 0
-27 -45 0
44 -45 0
27 -44 45 0
c PO
45 0
